p cnf 386 460
1 11 -16 21 22 0
1 11 -16 21 -22 0
1 11 -16 -21 23 0
1 11 -16 -21 -23 0
-1 2 -10 24 25 0
-1 2 -10 24 -25 0
-1 2 -10 -24 26 0
-1 2 -10 -24 -26 0
-18 9 17 27 28 0
-18 9 17 27 -28 0
-18 9 17 -27 29 0
-18 9 17 -27 -29 0
-9 -6 18 30 31 0
-9 -6 18 30 -31 0
-9 -6 18 -30 32 0
-9 -6 18 -30 -32 0
-9 -13 -17 33 34 0
-9 -13 -17 33 -34 0
-9 -13 -17 -33 35 0
-9 -13 -17 -33 -35 0
-4 -15 3 36 37 0
-4 -15 3 36 -37 0
-4 -15 3 -36 38 0
-4 -15 3 -36 -38 0
17 -20 -8 39 40 0
17 -20 -8 39 -40 0
17 -20 -8 -39 41 0
17 -20 -8 -39 -41 0
-20 11 19 42 43 0
-20 11 19 42 -43 0
-20 11 19 -42 44 0
-20 11 19 -42 -44 0
6 -15 -13 45 46 0
6 -15 -13 45 -46 0
6 -15 -13 -45 47 0
6 -15 -13 -45 -47 0
5 -19 -4 48 49 0
5 -19 -4 48 -49 0
5 -19 -4 -48 50 0
5 -19 -4 -48 -50 0
-12 -18 -14 51 52 0
-12 -18 -14 51 -52 0
-12 -18 -14 -51 53 0
-12 -18 -14 -51 -53 0
-13 11 -7 54 55 0
-13 11 -7 54 -55 0
-13 11 -7 -54 56 0
-13 11 -7 -54 -56 0
-19 -14 17 57 58 0
-19 -14 17 57 -58 0
-19 -14 17 -57 59 0
-19 -14 17 -57 -59 0
1 14 15 60 61 0
1 14 15 60 -61 0
1 14 15 -60 62 0
1 14 15 -60 -62 0
8 -3 9 63 64 0
8 -3 9 63 -64 0
8 -3 9 -63 65 0
8 -3 9 -63 -65 0
-20 -14 18 66 67 0
-20 -14 18 66 -67 0
-20 -14 18 -66 68 0
-20 -14 18 -66 -68 0
-14 4 18 69 70 0
-14 4 18 69 -70 0
-14 4 18 -69 71 0
-14 4 18 -69 -71 0
-18 -1 -16 72 73 0
-18 -1 -16 72 -73 0
-18 -1 -16 -72 74 0
-18 -1 -16 -72 -74 0
-16 -8 -11 75 76 0
-16 -8 -11 75 -76 0
-16 -8 -11 -75 77 0
-16 -8 -11 -75 -77 0
-7 13 -6 78 79 0
-7 13 -6 78 -79 0
-7 13 -6 -78 80 0
-7 13 -6 -78 -80 0
15 -4 -9 81 82 0
15 -4 -9 81 -82 0
15 -4 -9 -81 83 0
15 -4 -9 -81 -83 0
2 -18 -15 84 85 0
2 -18 -15 84 -85 0
2 -18 -15 -84 86 0
2 -18 -15 -84 -86 0
-19 -1 11 87 88 0
-19 -1 11 87 -88 0
-19 -1 11 -87 89 0
-19 -1 11 -87 -89 0
-8 -12 13 90 91 0
-8 -12 13 90 -91 0
-8 -12 13 -90 92 0
-8 -12 13 -90 -92 0
-15 -18 16 93 94 0
-15 -18 16 93 -94 0
-15 -18 16 -93 95 0
-15 -18 16 -93 -95 0
-11 -7 9 96 97 0
-11 -7 9 96 -97 0
-11 -7 9 -96 98 0
-11 -7 9 -96 -98 0
-17 -16 -20 99 100 0
-17 -16 -20 99 -100 0
-17 -16 -20 -99 101 0
-17 -16 -20 -99 -101 0
-7 15 -20 102 103 0
-7 15 -20 102 -103 0
-7 15 -20 -102 104 0
-7 15 -20 -102 -104 0
-3 -15 -7 105 106 0
-3 -15 -7 105 -106 0
-3 -15 -7 -105 107 0
-3 -15 -7 -105 -107 0
-18 8 15 108 109 0
-18 8 15 108 -109 0
-18 8 15 -108 110 0
-18 8 15 -108 -110 0
19 -18 13 111 112 0
19 -18 13 111 -112 0
19 -18 13 -111 113 0
19 -18 13 -111 -113 0
9 14 -2 114 115 0
9 14 -2 114 -115 0
9 14 -2 -114 116 0
9 14 -2 -114 -116 0
7 12 -14 117 118 0
7 12 -14 117 -118 0
7 12 -14 -117 119 0
7 12 -14 -117 -119 0
2 12 15 120 121 0
2 12 15 120 -121 0
2 12 15 -120 122 0
2 12 15 -120 -122 0
-6 -4 14 123 124 0
-6 -4 14 123 -124 0
-6 -4 14 -123 125 0
-6 -4 14 -123 -125 0
-5 16 -18 126 127 0
-5 16 -18 126 -127 0
-5 16 -18 -126 128 0
-5 16 -18 -126 -128 0
4 -12 -10 129 130 0
4 -12 -10 129 -130 0
4 -12 -10 -129 131 0
4 -12 -10 -129 -131 0
-4 -6 -7 132 133 0
-4 -6 -7 132 -133 0
-4 -6 -7 -132 134 0
-4 -6 -7 -132 -134 0
-18 13 -8 135 136 0
-18 13 -8 135 -136 0
-18 13 -8 -135 137 0
-18 13 -8 -135 -137 0
19 -6 -13 138 139 0
19 -6 -13 138 -139 0
19 -6 -13 -138 140 0
19 -6 -13 -138 -140 0
10 -12 11 141 142 0
10 -12 11 141 -142 0
10 -12 11 -141 143 0
10 -12 11 -141 -143 0
-11 5 15 144 145 0
-11 5 15 144 -145 0
-11 5 15 -144 146 0
-11 5 15 -144 -146 0
-20 10 -16 147 148 0
-20 10 -16 147 -148 0
-20 10 -16 -147 149 0
-20 10 -16 -147 -149 0
15 -14 -19 150 151 0
15 -14 -19 150 -151 0
15 -14 -19 -150 152 0
15 -14 -19 -150 -152 0
-4 1 11 153 154 0
-4 1 11 153 -154 0
-4 1 11 -153 155 0
-4 1 11 -153 -155 0
-9 16 -18 156 157 0
-9 16 -18 156 -157 0
-9 16 -18 -156 158 0
-9 16 -18 -156 -158 0
6 14 -17 159 160 0
6 14 -17 159 -160 0
6 14 -17 -159 161 0
6 14 -17 -159 -161 0
10 9 -5 162 163 0
10 9 -5 162 -163 0
10 9 -5 -162 164 0
10 9 -5 -162 -164 0
1 -4 15 165 166 0
1 -4 15 165 -166 0
1 -4 15 -165 167 0
1 -4 15 -165 -167 0
10 19 -6 168 169 0
10 19 -6 168 -169 0
10 19 -6 -168 170 0
10 19 -6 -168 -170 0
20 -3 -14 171 172 0
20 -3 -14 171 -172 0
20 -3 -14 -171 173 0
20 -3 -14 -171 -173 0
15 11 20 174 175 0
15 11 20 174 -175 0
15 11 20 -174 176 0
15 11 20 -174 -176 0
-13 19 14 177 178 0
-13 19 14 177 -178 0
-13 19 14 -177 179 0
-13 19 14 -177 -179 0
20 12 -5 180 181 0
20 12 -5 180 -181 0
20 12 -5 -180 182 0
20 12 -5 -180 -182 0
15 -8 -11 183 184 0
15 -8 -11 183 -184 0
15 -8 -11 -183 185 0
15 -8 -11 -183 -185 0
16 -11 -19 186 187 0
16 -11 -19 186 -187 0
16 -11 -19 -186 188 0
16 -11 -19 -186 -188 0
9 -8 -3 189 190 0
9 -8 -3 189 -190 0
9 -8 -3 -189 191 0
9 -8 -3 -189 -191 0
16 5 -11 192 193 0
16 5 -11 192 -193 0
16 5 -11 -192 194 0
16 5 -11 -192 -194 0
18 3 -10 195 196 0
18 3 -10 195 -196 0
18 3 -10 -195 197 0
18 3 -10 -195 -197 0
15 3 -7 198 199 0
15 3 -7 198 -199 0
15 3 -7 -198 200 0
15 3 -7 -198 -200 0
-1 19 8 201 202 0
-1 19 8 201 -202 0
-1 19 8 -201 203 0
-1 19 8 -201 -203 0
-12 16 -8 204 205 0
-12 16 -8 204 -205 0
-12 16 -8 -204 206 0
-12 16 -8 -204 -206 0
-8 18 4 207 208 0
-8 18 4 207 -208 0
-8 18 4 -207 209 0
-8 18 4 -207 -209 0
17 5 -10 210 211 0
17 5 -10 210 -211 0
17 5 -10 -210 212 0
17 5 -10 -210 -212 0
-5 1 20 213 214 0
-5 1 20 213 -214 0
-5 1 20 -213 215 0
-5 1 20 -213 -215 0
-9 6 1 216 217 0
-9 6 1 216 -217 0
-9 6 1 -216 218 0
-9 6 1 -216 -218 0
17 -18 4 219 220 0
17 -18 4 219 -220 0
17 -18 4 -219 221 0
17 -18 4 -219 -221 0
-4 19 -7 222 223 0
-4 19 -7 222 -223 0
-4 19 -7 -222 224 0
-4 19 -7 -222 -224 0
14 -3 20 225 226 0
14 -3 20 225 -226 0
14 -3 20 -225 227 0
14 -3 20 -225 -227 0
1 19 16 228 229 0
1 19 16 228 -229 0
1 19 16 -228 230 0
1 19 16 -228 -230 0
-12 2 -20 231 232 0
-12 2 -20 231 -232 0
-12 2 -20 -231 233 0
-12 2 -20 -231 -233 0
15 -13 1 234 235 0
15 -13 1 234 -235 0
15 -13 1 -234 236 0
15 -13 1 -234 -236 0
6 -1 11 237 238 0
6 -1 11 237 -238 0
6 -1 11 -237 239 0
6 -1 11 -237 -239 0
-16 5 8 240 241 0
-16 5 8 240 -241 0
-16 5 8 -240 242 0
-16 5 8 -240 -242 0
-19 -6 7 243 244 0
-19 -6 7 243 -244 0
-19 -6 7 -243 245 0
-19 -6 7 -243 -245 0
-18 -3 -9 246 247 0
-18 -3 -9 246 -247 0
-18 -3 -9 -246 248 0
-18 -3 -9 -246 -248 0
-13 15 10 249 250 0
-13 15 10 249 -250 0
-13 15 10 -249 251 0
-13 15 10 -249 -251 0
17 6 -9 252 253 0
17 6 -9 252 -253 0
17 6 -9 -252 254 0
17 6 -9 -252 -254 0
-12 -3 4 255 256 0
-12 -3 4 255 -256 0
-12 -3 4 -255 257 0
-12 -3 4 -255 -257 0
-7 16 14 258 259 0
-7 16 14 258 -259 0
-7 16 14 -258 260 0
-7 16 14 -258 -260 0
20 7 8 261 262 0
20 7 8 261 -262 0
20 7 8 -261 263 0
20 7 8 -261 -263 0
-6 17 2 264 265 0
-6 17 2 264 -265 0
-6 17 2 -264 266 0
-6 17 2 -264 -266 0
-3 -6 -7 267 268 0
-3 -6 -7 267 -268 0
-3 -6 -7 -267 269 0
-3 -6 -7 -267 -269 0
-10 5 -17 270 271 0
-10 5 -17 270 -271 0
-10 5 -17 -270 272 0
-10 5 -17 -270 -272 0
-2 11 -10 273 274 0
-2 11 -10 273 -274 0
-2 11 -10 -273 275 0
-2 11 -10 -273 -275 0
20 3 -7 276 277 0
20 3 -7 276 -277 0
20 3 -7 -276 278 0
20 3 -7 -276 -278 0
-14 -16 -7 279 280 0
-14 -16 -7 279 -280 0
-14 -16 -7 -279 281 0
-14 -16 -7 -279 -281 0
16 13 -2 282 283 0
16 13 -2 282 -283 0
16 13 -2 -282 284 0
16 13 -2 -282 -284 0
-17 13 20 285 286 0
-17 13 20 285 -286 0
-17 13 20 -285 287 0
-17 13 20 -285 -287 0
-8 7 -14 288 289 0
-8 7 -14 288 -289 0
-8 7 -14 -288 290 0
-8 7 -14 -288 -290 0
18 1 -4 291 292 0
18 1 -4 291 -292 0
18 1 -4 -291 293 0
18 1 -4 -291 -293 0
294 295 297 301 309 0
294 295 297 301 -309 0
294 295 297 -301 310 0
294 295 297 -301 -310 0
294 295 -297 302 311 0
294 295 -297 302 -311 0
294 295 -297 -302 312 0
294 295 -297 -302 -312 0
294 -295 298 303 313 0
294 -295 298 303 -313 0
294 -295 298 -303 314 0
294 -295 298 -303 -314 0
294 -295 -298 304 315 0
294 -295 -298 304 -315 0
294 -295 -298 -304 316 0
294 -295 -298 -304 -316 0
-294 296 299 305 317 0
-294 296 299 305 -317 0
-294 296 299 -305 318 0
-294 296 299 -305 -318 0
-294 296 -299 306 319 0
-294 296 -299 306 -319 0
-294 296 -299 -306 320 0
-294 296 -299 -306 -320 0
-294 -296 300 307 321 0
-294 -296 300 307 -321 0
-294 -296 300 -307 322 0
-294 -296 300 -307 -322 0
-294 -296 -300 308 323 0
-294 -296 -300 308 -323 0
-294 -296 -300 -308 324 0
-294 -296 -300 -308 -324 0
325 326 328 332 340 0
325 326 328 332 -340 0
325 326 328 -332 341 0
325 326 328 -332 -341 0
325 326 -328 333 342 0
325 326 -328 333 -342 0
325 326 -328 -333 343 0
325 326 -328 -333 -343 0
325 -326 329 334 344 0
325 -326 329 334 -344 0
325 -326 329 -334 345 0
325 -326 329 -334 -345 0
325 -326 -329 335 346 0
325 -326 -329 335 -346 0
325 -326 -329 -335 347 0
325 -326 -329 -335 -347 0
-325 327 330 336 348 0
-325 327 330 336 -348 0
-325 327 330 -336 349 0
-325 327 330 -336 -349 0
-325 327 -330 337 350 0
-325 327 -330 337 -350 0
-325 327 -330 -337 351 0
-325 327 -330 -337 -351 0
-325 -327 331 338 352 0
-325 -327 331 338 -352 0
-325 -327 331 -338 353 0
-325 -327 331 -338 -353 0
-325 -327 -331 339 354 0
-325 -327 -331 339 -354 0
-325 -327 -331 -339 355 0
-325 -327 -331 -339 -355 0
356 357 359 363 371 0
356 357 359 363 -371 0
356 357 359 -363 372 0
356 357 359 -363 -372 0
356 357 -359 364 373 0
356 357 -359 364 -373 0
356 357 -359 -364 374 0
356 357 -359 -364 -374 0
356 -357 360 365 375 0
356 -357 360 365 -375 0
356 -357 360 -365 376 0
356 -357 360 -365 -376 0
356 -357 -360 366 377 0
356 -357 -360 366 -377 0
356 -357 -360 -366 378 0
356 -357 -360 -366 -378 0
-356 358 361 367 379 0
-356 358 361 367 -379 0
-356 358 361 -367 380 0
-356 358 361 -367 -380 0
-356 358 -361 368 381 0
-356 358 -361 368 -381 0
-356 358 -361 -368 382 0
-356 358 -361 -368 -382 0
-356 -358 362 369 383 0
-356 -358 362 369 -383 0
-356 -358 362 -369 384 0
-356 -358 362 -369 -384 0
-356 -358 -362 370 385 0
-356 -358 -362 370 -385 0
-356 -358 -362 -370 386 0
-356 -358 -362 -370 -386 0

